; benchmark generated from python API
(set-info :status unknown)
(declare-fun DISJ_W_S1_R_E1 () Bool)
(declare-fun W_S1_V2 () Bool)
(declare-fun R_S1_V1 () Bool)
(declare-fun W_S1_V1 () Bool)
(declare-fun DISJ_W_S1_R_S1 () Bool)
(declare-fun W_S1_V4 () Bool)
(declare-fun R_E1_V4 () Bool)
(declare-fun R_E1_V2 () Bool)
(declare-fun R_E1_V3 () Bool)
(declare-fun R_S1_V4 () Bool)
(declare-fun R_S1_V2 () Bool)
(declare-fun R_S1_V3 () Bool)
(declare-fun W_S1_V3 () Bool)
(declare-fun R_E1_V1 () Bool)
(assert
 (let (($x3156 (not (and (not R_S1_V1) (not W_S1_V2) DISJ_W_S1_R_E1))))
 (let (($x1491 (not (and (not W_S1_V1) (not W_S1_V2)))))
 (let (($x2259 (not (and (not W_S1_V2) DISJ_W_S1_R_S1 DISJ_W_S1_R_E1))))
 (let (($x2257 (forall ((V3_0 Int) )(forall ((V2_0 Int) )(forall ((V4_0 Int) )(forall ((MW_S1_V1 Bool) )(forall ((MW_S1_V3 Bool) )(forall ((MW_S1_V2 Bool) )(forall ((MW_S1_V4 Bool) )(forall ((S1_V3_!152 Int) )(forall ((S1_V3_!158 Int) )(forall ((S1_V4_!154 Int) )(forall ((S1_V4_!160 Int) )(forall ((S1_V1_!151 Int) )(forall ((S1_V1_!157 Int) )(forall ((S1_V2_!153 Int) )(forall ((S1_V2_!159 Int) )(forall ((E1_!150 Int) )(forall ((E1_!155 Int) )(forall ((E1_!156 Int) )(forall ((E1_!161 Int) )(let ((?x1388 (ite MW_S1_V4 S1_V4_!160 V4_0)))
 (let (($x2085 (= (ite MW_S1_V4 S1_V4_!154 V4_0) ?x1388)))
 (let (($x3254 (and (= (ite MW_S1_V1 S1_V1_!151 E1_!150) (+ (- 1) (ite MW_S1_V2 S1_V2_!159 V2_0))) (= (ite MW_S1_V3 S1_V3_!152 V3_0) (ite MW_S1_V3 S1_V3_!158 V3_0)) (= (ite MW_S1_V2 S1_V2_!153 V2_0) (ite MW_S1_V2 S1_V2_!159 V2_0)) $x2085)))
 (let (($x2691 (and (not (<= V2_0 E1_!150)) (>= (ite MW_S1_V1 S1_V1_!151 E1_!150) (+ (- 1) (ite MW_S1_V2 S1_V2_!153 V2_0))) (not (<= V2_0 E1_!155)) (>= V2_0 (+ 1 E1_!156)) (not (<= E1_!161 (+ (- 1) (ite MW_S1_V1 S1_V1_!157 (+ (- 1) V2_0))))))))
 (let (($x3379 (= E1_!161 E1_!156)))
 (let (($x4925 (and (or (not R_E1_V3) (= (ite MW_S1_V3 S1_V3_!158 V3_0) V3_0)) (or (not R_E1_V2) (= (ite MW_S1_V2 S1_V2_!159 V2_0) V2_0)) (or (not R_E1_V4) (= ?x1388 V4_0)))))
 (let (($x3750 (not $x4925)))
 (let (($x5292 (not (or (not R_S1_V1) (= V2_0 (+ 1 E1_!150))))))
 (let (($x5316 (not (or (not R_S1_V1) (= E1_!150 (+ (- 1) V2_0))))))
 (let (($x1154 (and (or $x5316 (= S1_V3_!152 S1_V3_!158)) (or $x5292 (= S1_V4_!160 S1_V4_!154)) (or $x5316 (= S1_V1_!151 S1_V1_!157)) (or $x5292 (= S1_V2_!159 S1_V2_!153)) (= E1_!150 E1_!155) (= E1_!150 E1_!156) (= E1_!155 E1_!156) (or $x3750 (= E1_!161 E1_!150)) (or $x3750 (= E1_!161 E1_!155)) (or $x3750 $x3379) (or (not MW_S1_V1) W_S1_V1) (or (not MW_S1_V2) W_S1_V2) (or (not MW_S1_V4) W_S1_V4))))
 (or (not $x1154) (not $x2691) $x3254))))))))))))
 )
 )
 )
 )
 )
 )
 )
 )
 )
 )
 )
 )
 )
 )
 )
 )
 )
 )
 ))
 (let (($x1352 (or R_E1_V3 (and W_S1_V2 R_E1_V2) (and W_S1_V4 R_E1_V4))))
 (let (($x2752 (= DISJ_W_S1_R_E1 (not $x1352))))
 (let (($x1961 (and W_S1_V4 R_S1_V4)))
 (let (($x2312 (and W_S1_V2 R_S1_V2)))
 (let (($x1809 (and W_S1_V1 R_S1_V1)))
 (let (($x1823 (= DISJ_W_S1_R_S1 (not (or $x1809 R_S1_V3 $x2312 $x1961)))))
 (let (($x3682 (not R_E1_V1)))
 (and (and $x3682 W_S1_V3 $x1823 $x2752 $x2257) $x2259 $x1491 $x3156)))))))))))))
(check-sat)
